
n= 20; m=8;


47	40	15	8	20	6	10	5	10	44	37	27	31	16	45	14	10	37	47	19     
40	3	31	1	33	27	16	13	41	21	8	7	42	5	6	42	9	19	18	24
33	6	21	38	16	15	42	25	20	33	31	9	36	18	47	11	26	15	4	46
44	44	19	31	6	10	7	34	2	43	24	25	1	19	41	15	4	30	29	41
23	36	25	40	8	17	8	29	46	32	35	12	42	3	2	41	40	43	21	40
39	33	28	47	13	10	30	31	31	23	4	23	13	10	42	6	11	36	16	25
18	40	30	33	36	24	29	13	15	21	41	11	4	5	44	10	21	32	36	29     
33	6	21	38	16	15	42	25	20	33	31	9	36	18	47	11	26	15	4	46
																			

